Cost: 474
0-51-17-40-12-26-0
0-35-14-19-8-46-34-0
0-58-10-38-11-53-7-0
0-33-43-41-42-22-28-0
0-45-29-13-27-52-0
0-39-9-32-44-49-16-0
0-15-37-36-47-48-30-0
Cost: 474
0-45-29-13-27-52-0
0-35-14-19-8-46-34-0
0-16-49-44-32-9-39-0
0-26-12-40-17-51-0
0-33-43-41-42-22-28-0
0-15-37-36-47-48-30-0
0-58-10-38-11-53-7-0
Cost: 474
0-7-53-11-38-10-58-0
0-15-37-36-47-48-30-0
0-45-29-13-27-52-0
0-16-49-44-32-9-39-0
0-35-14-19-8-46-34-0
0-26-12-40-17-51-0
0-28-22-42-41-43-33-0
Cost: 475
0-34-46-8-19-14-35-0
0-15-37-36-47-48-30-0
0-33-43-41-42-22-28-0
0-45-29-13-27-52-0
0-17-40-44-49-16-51-0
0-26-12-39-9-32-0
0-7-53-11-38-10-58-0
Cost: 474
0-33-43-41-42-22-28-0
0-26-12-40-17-51-0
0-39-9-32-44-49-16-0
0-7-53-11-38-10-58-0
0-30-48-47-36-37-15-0
0-34-46-8-19-14-35-0
0-52-27-13-29-45-0
Cost: 474
0-51-17-40-12-26-0
0-34-46-8-19-14-35-0
0-15-37-36-47-48-30-0
0-45-29-13-27-52-0
0-7-53-11-38-10-58-0
0-33-43-41-42-22-28-0
0-16-49-44-32-9-39-0
Cost: 474
0-33-43-41-42-22-28-0
0-51-17-40-12-26-0
0-30-48-47-36-37-15-0
0-58-10-38-11-53-7-0
0-52-27-13-29-45-0
0-35-14-19-8-46-34-0
0-39-9-32-44-49-16-0
Cost: 475
0-30-48-47-36-37-15-0
0-7-53-11-38-10-58-0
0-33-43-41-42-22-28-0
0-40-32-44-49-16-51-0
0-52-27-13-29-45-0
0-17-9-39-12-26-0
0-34-46-8-19-14-35-0
Cost: 474
0-58-10-38-11-53-7-0
0-26-12-40-17-51-0
0-35-14-19-8-46-34-0
0-52-27-13-29-45-0
0-28-22-42-41-43-33-0
0-16-49-44-32-9-39-0
0-30-48-47-36-37-15-0
Cost: 474
0-15-37-36-47-48-30-0
0-52-27-13-29-45-0
0-58-10-38-11-53-7-0
0-26-12-40-17-51-0
0-39-9-32-44-49-16-0
0-33-43-41-42-22-28-0
0-35-14-19-8-46-34-0
Cost: 474
0-45-29-13-27-52-0
0-58-10-38-11-53-7-0
0-26-12-40-17-51-0
0-30-48-47-36-37-15-0
0-33-43-41-42-22-28-0
0-39-9-32-44-49-16-0
0-35-14-19-8-46-34-0
Cost: 474
0-51-17-40-12-26-0
0-16-49-44-32-9-39-0
0-45-29-13-27-52-0
0-30-48-47-36-37-15-0
0-35-14-19-8-46-34-0
0-58-10-38-11-53-7-0
0-28-22-42-41-43-33-0
Cost: 474
0-45-29-13-27-52-0
0-28-22-42-41-43-33-0
0-34-46-8-19-14-35-0
0-16-49-44-32-9-39-0
0-7-53-11-38-10-58-0
0-51-17-40-12-26-0
0-30-48-47-36-37-15-0
Cost: 474
0-7-53-11-38-10-58-0
0-45-29-13-27-52-0
0-28-22-42-41-43-33-0
0-26-12-40-17-51-0
0-30-48-47-36-37-15-0
0-35-14-19-8-46-34-0
0-39-9-32-44-49-16-0
Cost: 474
0-33-43-41-42-22-28-0
0-16-49-44-32-9-39-0
0-52-27-13-29-45-0
0-58-10-38-11-53-7-0
0-51-17-40-12-26-0
0-15-37-36-47-48-30-0
0-35-14-19-8-46-34-0
Cost: 474
0-33-43-41-42-22-28-0
0-16-49-44-32-9-39-0
0-52-27-13-29-45-0
0-58-10-38-11-53-7-0
0-51-17-40-12-26-0
0-15-37-36-47-48-30-0
0-35-14-19-8-46-34-0
Cost: 474
0-33-43-41-42-22-28-0
0-34-46-8-19-14-35-0
0-39-9-32-44-49-16-0
0-51-17-40-12-26-0
0-45-29-13-27-52-0
0-58-10-38-11-53-7-0
0-30-48-47-36-37-15-0
Cost: 474
0-35-14-19-8-46-34-0
0-51-17-40-12-26-0
0-45-29-13-27-52-0
0-15-37-36-47-48-30-0
0-16-49-44-32-9-39-0
0-58-10-38-11-53-7-0
0-33-43-41-42-22-28-0
Cost: 474
0-15-37-36-47-48-30-0
0-51-17-40-12-26-0
0-58-10-38-11-53-7-0
0-35-14-19-8-46-34-0
0-45-29-13-27-52-0
0-39-9-32-44-49-16-0
0-28-22-42-41-43-33-0
Cost: 474
0-15-37-36-47-48-30-0
0-51-17-40-12-26-0
0-58-10-38-11-53-7-0
0-35-14-19-8-46-34-0
0-45-29-13-27-52-0
0-39-9-32-44-49-16-0
0-28-22-42-41-43-33-0
Cost: 474
0-15-37-36-47-48-30-0
0-45-29-13-27-52-0
0-16-49-44-32-9-39-0
0-7-53-11-38-10-58-0
0-33-43-41-42-22-28-0
0-34-46-8-19-14-35-0
0-51-17-40-12-26-0
Cost: 474
0-15-37-36-47-48-30-0
0-45-29-13-27-52-0
0-16-49-44-32-9-39-0
0-7-53-11-38-10-58-0
0-33-43-41-42-22-28-0
0-34-46-8-19-14-35-0
0-51-17-40-12-26-0
Cost: 474
0-34-46-8-19-14-35-0
0-30-48-47-36-37-15-0
0-33-43-41-42-22-28-0
0-39-9-32-44-49-16-0
0-52-27-13-29-45-0
0-58-10-38-11-53-7-0
0-26-12-40-17-51-0
Cost: 474
0-15-37-36-47-48-30-0
0-45-29-13-27-52-0
0-16-49-44-32-9-39-0
0-7-53-11-38-10-58-0
0-33-43-41-42-22-28-0
0-34-46-8-19-14-35-0
0-51-17-40-12-26-0
Cost: 474
0-35-14-19-8-46-34-0
0-51-17-40-12-26-0
0-45-29-13-27-52-0
0-15-37-36-47-48-30-0
0-16-49-44-32-9-39-0
0-58-10-38-11-53-7-0
0-33-43-41-42-22-28-0
Cost: 475
0-40-32-44-49-16-51-0
0-26-12-39-9-17-0
0-58-10-38-11-53-7-0
0-52-27-13-29-45-0
0-15-37-36-47-48-30-0
0-28-22-42-41-43-33-0
0-35-14-19-8-46-34-0
Cost: 474
0-45-29-13-27-52-0
0-7-53-11-38-10-58-0
0-39-9-32-44-49-16-0
0-35-14-19-8-46-34-0
0-33-43-41-42-22-28-0
0-15-37-36-47-48-30-0
0-26-12-40-17-51-0
Cost: 474
0-35-14-19-8-46-34-0
0-26-12-40-17-51-0
0-15-37-36-47-48-30-0
0-45-29-13-27-52-0
0-39-9-32-44-49-16-0
0-28-22-42-41-43-33-0
0-7-53-11-38-10-58-0
Cost: 476
0-26-40-44-49-16-51-0
0-34-46-8-19-14-35-0
0-17-32-9-39-12-0
0-15-37-36-47-48-30-0
0-52-27-13-29-45-0
0-33-43-41-42-22-28-0
0-58-10-38-11-53-7-0
Cost: 474
0-58-10-38-11-53-7-0
0-16-49-44-32-9-39-0
0-30-48-47-36-37-15-0
0-52-27-13-29-45-0
0-28-22-42-41-43-33-0
0-34-46-8-19-14-35-0
0-51-17-40-12-26-0
Cost: 474
0-7-53-11-38-10-58-0
0-26-12-40-17-51-0
0-30-48-47-36-37-15-0
0-33-43-41-42-22-28-0
0-16-49-44-32-9-39-0
0-45-29-13-27-52-0
0-35-14-19-8-46-34-0
